CLW08
Position Depot: Random
Horizon for Depot: Large
Position of customers: Cluster
Distribution of the demand: Large
Width of time windows: Wide
Distribution of the service: Small

VEHICLE 
NUMBER 	 CAPACITY 
 10 	 	 286 
 
CUSTOMER
CUST NO. 	 XCOORD.  	 YCOORD. 	 DEMAND 	 READY TIME 	 DUE DATE 	 SERVICE TIME 
 0 	 	 235 	 	 772 	 	 0 	 	 0 	 	 3244 	 	 0 
  1 	 	 26 	 	 581 	 	 8 	 	 2840 	 	 3105 	 	 100 
  2 	 	 977 	 	 712 	 	 18 	 	 2784 	 	 3244 	 	 96 
  3 	 	 384 	 	 126 	 	 81 	 	 2844 	 	 3120 	 	 84 
  4 	 	 35 	 	 661 	 	 81 	 	 2182 	 	 2673 	 	 86 
  5 	 	 529 	 	 717 	 	 50 	 	 434 	 	 811 	 	 51 
  6 	 	 576 	 	 668 	 	 87 	 	 2631 	 	 3060 	 	 91 
  7 	 	 76 	 	 597 	 	 24 	 	 631 	 	 913 	 	 77 
  8 	 	 1 	 	 628 	 	 66 	 	 2336 	 	 2706 	 	 83 
  9 	 	 954 	 	 732 	 	 43 	 	 2685 	 	 2988 	 	 86 
  10 	 	 408 	 	 61 	 	 62 	 	 1175 	 	 1489 	 	 97 
  11 	 	 443 	 	 96 	 	 51 	 	 1209 	 	 1450 	 	 86 
  12 	 	 114 	 	 569 	 	 81 	 	 1149 	 	 1605 	 	 71 
  13 	 	 470 	 	 708 	 	 80 	 	 1092 	 	 1382 	 	 75 
  14 	 	 389 	 	 74 	 	 59 	 	 2689 	 	 3075 	 	 99 
  15 	 	 902 	 	 798 	 	 34 	 	 1212 	 	 1480 	 	 59 
  16 	 	 64 	 	 509 	 	 98 	 	 2169 	 	 2592 	 	 85 
  17 	 	 117 	 	 561 	 	 89 	 	 2204 	 	 2583 	 	 52 
  18 	 	 244 	 	 131 	 	 52 	 	 1443 	 	 1714 	 	 85 
  19 	 	 331 	 	 134 	 	 63 	 	 2259 	 	 2584 	 	 97 
  20 	 	 443 	 	 2 	 	 46 	 	 2675 	 	 2891 	 	 68 
  21 	 	 82 	 	 610 	 	 81 	 	 2143 	 	 2595 	 	 73 
  22 	 	 44 	 	 544 	 	 69 	 	 937 	 	 1266 	 	 66 
  23 	 	 379 	 	 172 	 	 57 	 	 2073 	 	 2387 	 	 60 
  24 	 	 560 	 	 734 	 	 41 	 	 2662 	 	 2944 	 	 72 
  25 	 	 100 	 	 575 	 	 54 	 	 1639 	 	 2079 	 	 99 
  26 	 	 145 	 	 622 	 	 65 	 	 2811 	 	 3244 	 	 99 
  27 	 	 89 	 	 576 	 	 76 	 	 377 	 	 640 	 	 98 
  28 	 	 58 	 	 659 	 	 51 	 	 10 	 	 230 	 	 86 
  29 	 	 91 	 	 568 	 	 59 	 	 2027 	 	 2378 	 	 89 
  30 	 	 407 	 	 127 	 	 1 	 	 1107 	 	 1602 	 	 66 
  31 	 	 545 	 	 685 	 	 92 	 	 292 	 	 515 	 	 80 
  32 	 	 910 	 	 731 	 	 88 	 	 1929 	 	 2231 	 	 70 
  33 	 	 478 	 	 777 	 	 5 	 	 1722 	 	 1938 	 	 65 
  34 	 	 344 	 	 131 	 	 51 	 	 2804 	 	 3244 	 	 88 
  35 	 	 402 	 	 56 	 	 39 	 	 2212 	 	 2611 	 	 79 
  36 	 	 979 	 	 720 	 	 80 	 	 2615 	 	 3084 	 	 62 
  37 	 	 357 	 	 110 	 	 14 	 	 2884 	 	 3244 	 	 55 
  38 	 	 131 	 	 633 	 	 86 	 	 1881 	 	 2152 	 	 83 
  39 	 	 502 	 	 701 	 	 50 	 	 197 	 	 675 	 	 99 
  40 	 	 545 	 	 683 	 	 91 	 	 16 	 	 354 	 	 92 
  41 	 	 3 	 	 662 	 	 89 	 	 285 	 	 725 	 	 83 
  42 	 	 42 	 	 534 	 	 86 	 	 1679 	 	 1937 	 	 57 
  43 	 	 360 	 	 120 	 	 78 	 	 2673 	 	 2892 	 	 65 
  44 	 	 94 	 	 674 	 	 69 	 	 1145 	 	 1394 	 	 79 
  45 	 	 386 	 	 138 	 	 76 	 	 1199 	 	 1660 	 	 99 
  46 	 	 526 	 	 749 	 	 69 	 	 2274 	 	 2709 	 	 81 
  47 	 	 574 	 	 751 	 	 15 	 	 2152 	 	 2642 	 	 51 
  48 	 	 454 	 	 724 	 	 22 	 	 1132 	 	 1478 	 	 50 
  49 	 	 285 	 	 126 	 	 9 	 	 2086 	 	 2521 	 	 93 
  50 	 	 958 	 	 601 	 	 17 	 	 1920 	 	 2141 	 	 91 
 